(set-logic QF_NRA)
(set-info :source |Benchmarks generated from hycomp (https://es-static.fbk.eu/tools/hycomp/). BMC instances of non-linear hybrid automata taken from: Alessandro Cimatti, Sergio Mover, Stefano Tonetta, A quantifier-free SMT encoding of non-linear hybrid automata, FMCAD 2012 and Alessandro Cimatti, Sergio Mover, Stefano Tonetta, Quantier-free encoding of invariants for Hybrid Systems, Formal Methods in System Design. This instance solves a BMC problem of depth 3 and uses the quantifier free encoding with lemmas encoding. Contacts: Sergio Mover (mover@fbk.eu), Stefano Tonetta (tonettas@fbk.eu), Alessandro Cimatti (cimatti@fbk.eu).|)
(set-info :smt-lib-version 2.0)
(set-info :category "industrial")
(set-info :status unsat)
;; MathSAT API call trace
;; generated on Mon Mar 19 10:47:09 2012
(declare-fun b.event_is_timed__AT2 () Bool)
(declare-fun b.y__AT0 () Real)
(declare-fun b.counter.0__AT0 () Bool)
(declare-fun b.EVENT.0__AT0 () Bool)
(declare-fun b.bool_atom__AT2 () Bool)
(declare-fun b.counter.3__AT0 () Bool)
(declare-fun b.counter.1__AT0 () Bool)
(declare-fun b.y__AT2 () Real)
(declare-fun b.event_is_timed__AT1 () Bool)
(declare-fun b.bool_atom__AT1 () Bool)
(declare-fun b.time__AT2 () Real)
(declare-fun b.delta__AT2 () Real)
(declare-fun b.x__AT2 () Real)
(declare-fun b.EVENT.0__AT2 () Bool)
(declare-fun b.EVENT.1__AT2 () Bool)
(declare-fun b.g__AT0 () Real)
(declare-fun b.speed_y__AT0 () Real)
(declare-fun b.x__AT1 () Real)
(declare-fun b.event_is_timed__AT3 () Bool)
(declare-fun b.y__AT1 () Real)
(declare-fun b.counter.2__AT0 () Bool)
(declare-fun b.speed_y__AT2 () Real)
(declare-fun b.counter.0__AT1 () Bool)
(declare-fun b.counter.1__AT1 () Bool)
(declare-fun b.y__AT3 () Real)
(declare-fun b.counter.2__AT1 () Bool)
(declare-fun b.event_is_timed__AT0 () Bool)
(declare-fun b.time__AT3 () Real)
(declare-fun b.counter.0__AT3 () Bool)
(declare-fun b.counter.3__AT1 () Bool)
(declare-fun b.bool_atom__AT0 () Bool)
(declare-fun b.delta__AT3 () Real)
(declare-fun b.counter.1__AT3 () Bool)
(declare-fun b.x__AT0 () Real)
(declare-fun b.x__AT3 () Real)
(declare-fun b.EVENT.0__AT3 () Bool)
(declare-fun b.counter.2__AT3 () Bool)
(declare-fun b.counter.0__AT2 () Bool)
(declare-fun b.EVENT.1__AT3 () Bool)
(declare-fun b.counter.3__AT3 () Bool)
(declare-fun b.delta__AT1 () Real)
(declare-fun b.counter.1__AT2 () Bool)
(declare-fun b.speed_y__AT1 () Real)
(declare-fun b.time__AT1 () Real)
(declare-fun b.bool_atom__AT3 () Bool)
(declare-fun b.EVENT.0__AT1 () Bool)
(declare-fun b.counter.2__AT2 () Bool)
(declare-fun b.time__AT0 () Real)
(declare-fun b.EVENT.1__AT1 () Bool)
(declare-fun b.counter.3__AT2 () Bool)
(declare-fun b.delta__AT0 () Real)
(declare-fun b.speed_y__AT3 () Real)
(declare-fun b.EVENT.1__AT0 () Bool)
(assert (let ((.def_68 (* (- 1.0) b.g__AT0)))
(let ((.def_71 (* (/ 1 2) .def_68)))
(let ((.def_83 (* 2.0 .def_71)))
(let ((.def_127 (* (- 1.0) .def_83)))
(let ((.def_814 (* .def_127 b.delta__AT3)))
(let ((.def_817 (<= .def_814 b.speed_y__AT3)))
(let ((.def_824 (not .def_817)))
(let ((.def_777 (<= 0.0 b.speed_y__AT3)))
(let ((.def_825 (or .def_777 .def_824)))
(let ((.def_815 (<= b.speed_y__AT3 .def_814)))
(let ((.def_791 (<= b.speed_y__AT3 0.0 )))
(let ((.def_792 (not .def_791)))
(let ((.def_823 (or .def_792 .def_815)))
(let ((.def_826 (and .def_823 .def_825)))
(let ((.def_118 (<= b.g__AT0 0.0 )))
(let ((.def_827 (or .def_118 .def_826)))
(let ((.def_819 (not .def_815)))
(let ((.def_820 (or .def_791 .def_819)))
(let ((.def_778 (not .def_777)))
(let ((.def_818 (or .def_778 .def_817)))
(let ((.def_821 (and .def_818 .def_820)))
(let ((.def_123 (<= 0.0 b.g__AT0)))
(let ((.def_822 (or .def_123 .def_821)))
(let ((.def_828 (and .def_822 .def_827)))
(let ((.def_816 (and .def_791 .def_815)))
(let ((.def_829 (and .def_816 .def_828)))
(let ((.def_773 (* .def_83 b.delta__AT3)))
(let ((.def_774 (+ b.speed_y__AT3 .def_773)))
(let ((.def_789 (<= .def_774 0.0 )))
(let ((.def_790 (not .def_789)))
(let ((.def_809 (or .def_790 .def_791)))
(let ((.def_775 (<= 0.0 .def_774)))
(let ((.def_808 (or .def_775 .def_778)))
(let ((.def_810 (and .def_808 .def_809)))
(let ((.def_811 (or .def_123 .def_810)))
(let ((.def_776 (not .def_775)))
(let ((.def_805 (or .def_776 .def_777)))
(let ((.def_804 (or .def_789 .def_792)))
(let ((.def_806 (and .def_804 .def_805)))
(let ((.def_807 (or .def_118 .def_806)))
(let ((.def_812 (and .def_807 .def_811)))
(let ((.def_803 (and .def_775 .def_777)))
(let ((.def_813 (and .def_803 .def_812)))
(let ((.def_830 (or .def_813 .def_829)))
(let ((.def_764 (* b.speed_y__AT3 b.delta__AT3)))
(let ((.def_762 (* b.delta__AT3 b.delta__AT3)))
(let ((.def_763 (* .def_71 .def_762)))
(let ((.def_765 (+ .def_763 .def_764)))
(let ((.def_750 (* (- 1.0) b.x__AT3)))
(let ((.def_751 (* b.x__AT3 .def_750)))
(let ((.def_766 (* (- 1.0) .def_751)))
(let ((.def_769 (+ .def_766 .def_765)))
(let ((.def_770 (+ b.y__AT3 .def_769)))
(let ((.def_783 (<= .def_770 0.0 )))
(let ((.def_797 (not .def_783)))
(let ((.def_781 (<= b.y__AT3 .def_751)))
(let ((.def_798 (or .def_781 .def_797)))
(let ((.def_752 (<= .def_751 b.y__AT3)))
(let ((.def_795 (not .def_752)))
(let ((.def_771 (<= 0.0 .def_770)))
(let ((.def_796 (or .def_771 .def_795)))
(let ((.def_799 (and .def_796 .def_798)))
(let ((.def_793 (or .def_790 .def_792)))
(let ((.def_794 (not .def_793)))
(let ((.def_800 (or .def_794 .def_799)))
(let ((.def_785 (not .def_771)))
(let ((.def_786 (or .def_752 .def_785)))
(let ((.def_782 (not .def_781)))
(let ((.def_784 (or .def_782 .def_783)))
(let ((.def_787 (and .def_784 .def_786)))
(let ((.def_779 (or .def_776 .def_778)))
(let ((.def_780 (not .def_779)))
(let ((.def_788 (or .def_780 .def_787)))
(let ((.def_801 (and .def_788 .def_800)))
(let ((.def_772 (and .def_752 .def_771)))
(let ((.def_802 (and .def_772 .def_801)))
(let ((.def_831 (and .def_802 .def_830)))
(let ((.def_60 (<= b.g__AT0 10.0 )))
(let ((.def_59 (<= 8.0 b.g__AT0)))
(let ((.def_61 (and .def_59 .def_60)))
(let ((.def_832 (and .def_61 .def_831)))
(let ((.def_443 (not b.counter.0__AT2)))
(let ((.def_433 (not b.counter.1__AT2)))
(let ((.def_756 (and .def_433 .def_443)))
(let ((.def_438 (not b.counter.2__AT2)))
(let ((.def_757 (and .def_438 .def_756)))
(let ((.def_452 (not b.counter.3__AT2)))
(let ((.def_758 (and .def_452 .def_757)))
(let ((.def_753 (and .def_61 .def_752)))
(let ((.def_747 (not b.EVENT.0__AT3)))
(let ((.def_745 (not b.EVENT.1__AT3)))
(let ((.def_748 (or .def_745 .def_747)))
(let ((.def_6 (not b.counter.0__AT3)))
(let ((.def_4 (not b.counter.1__AT3)))
(let ((.def_738 (or .def_4 .def_6)))
(let ((.def_742 (or b.counter.3__AT3 .def_738)))
(let ((.def_739 (or b.counter.2__AT3 .def_738)))
(let ((.def_9 (not b.counter.2__AT3)))
(let ((.def_737 (or .def_6 .def_9)))
(let ((.def_740 (and .def_737 .def_739)))
(let ((.def_12 (not b.counter.3__AT3)))
(let ((.def_741 (or .def_12 .def_740)))
(let ((.def_743 (and .def_741 .def_742)))
(let ((.def_749 (and .def_743 .def_748)))
(let ((.def_754 (and .def_749 .def_753)))
(let ((.def_732 (<= 0.0 b.delta__AT2)))
(let ((.def_523 (not b.EVENT.0__AT2)))
(let ((.def_521 (not b.EVENT.1__AT2)))
(let ((.def_610 (and .def_521 .def_523)))
(let ((.def_612 (not .def_610)))
(let ((.def_733 (or .def_612 .def_732)))
(let ((.def_734 (or b.EVENT.1__AT2 .def_733)))
(let ((.def_647 (= b.bool_atom__AT2 b.bool_atom__AT3)))
(let ((.def_643 (= b.counter.0__AT3 b.counter.0__AT2)))
(let ((.def_641 (= b.counter.1__AT3 b.counter.1__AT2)))
(let ((.def_639 (= b.counter.2__AT3 b.counter.2__AT2)))
(let ((.def_638 (= b.counter.3__AT3 b.counter.3__AT2)))
(let ((.def_640 (and .def_638 .def_639)))
(let ((.def_642 (and .def_640 .def_641)))
(let ((.def_644 (and .def_642 .def_643)))
(let ((.def_728 (and .def_644 .def_647)))
(let ((.def_729 (or .def_612 .def_728)))
(let ((.def_730 (or b.EVENT.1__AT2 .def_729)))
(let ((.def_717 (* .def_68 b.delta__AT2)))
(let ((.def_718 (* (- 1.0) b.speed_y__AT3)))
(let ((.def_721 (+ .def_718 .def_717)))
(let ((.def_722 (+ b.speed_y__AT2 .def_721)))
(let ((.def_723 (= .def_722 0.0 )))
(let ((.def_708 (* (- 1.0) b.y__AT3)))
(let ((.def_540 (* b.speed_y__AT2 b.delta__AT2)))
(let ((.def_712 (+ .def_540 .def_708)))
(let ((.def_538 (* b.delta__AT2 b.delta__AT2)))
(let ((.def_539 (* .def_71 .def_538)))
(let ((.def_713 (+ .def_539 .def_712)))
(let ((.def_714 (+ b.y__AT2 .def_713)))
(let ((.def_715 (= .def_714 0.0 )))
(let ((.def_630 (= b.x__AT2 b.x__AT3)))
(let ((.def_716 (and .def_630 .def_715)))
(let ((.def_724 (and .def_716 .def_723)))
(let ((.def_725 (or .def_612 .def_724)))
(let ((.def_633 (= b.y__AT2 b.y__AT3)))
(let ((.def_703 (and .def_630 .def_633)))
(let ((.def_636 (= b.speed_y__AT2 b.speed_y__AT3)))
(let ((.def_704 (and .def_636 .def_703)))
(let ((.def_700 (= b.delta__AT2 0.0 )))
(let ((.def_701 (and .def_610 .def_700)))
(let ((.def_702 (not .def_701)))
(let ((.def_705 (or .def_702 .def_704)))
(let ((.def_706 (or b.EVENT.1__AT2 .def_705)))
(let ((.def_693 (and .def_636 .def_644)))
(let ((.def_694 (or b.bool_atom__AT2 .def_693)))
(let ((.def_669 (or .def_6 b.counter.0__AT2)))
(let ((.def_668 (or b.counter.0__AT3 .def_443)))
(let ((.def_670 (and .def_668 .def_669)))
(let ((.def_671 (and .def_4 .def_670)))
(let ((.def_672 (or b.counter.1__AT2 .def_671)))
(let ((.def_667 (or b.counter.1__AT3 .def_433)))
(let ((.def_673 (and .def_667 .def_672)))
(let ((.def_684 (and .def_9 .def_673)))
(let ((.def_685 (or b.counter.2__AT2 .def_684)))
(let ((.def_679 (and .def_4 .def_443)))
(let ((.def_680 (or b.counter.1__AT2 .def_679)))
(let ((.def_681 (and .def_667 .def_680)))
(let ((.def_682 (and b.counter.2__AT3 .def_681)))
(let ((.def_683 (or .def_438 .def_682)))
(let ((.def_686 (and .def_683 .def_685)))
(let ((.def_687 (and b.counter.3__AT3 .def_686)))
(let ((.def_688 (or b.counter.3__AT2 .def_687)))
(let ((.def_674 (and b.counter.2__AT3 .def_673)))
(let ((.def_675 (or b.counter.2__AT2 .def_674)))
(let ((.def_663 (or b.counter.1__AT3 b.counter.1__AT2)))
(let ((.def_661 (and .def_4 b.counter.0__AT3)))
(let ((.def_662 (or .def_433 .def_661)))
(let ((.def_664 (and .def_662 .def_663)))
(let ((.def_665 (and .def_9 .def_664)))
(let ((.def_666 (or .def_438 .def_665)))
(let ((.def_676 (and .def_666 .def_675)))
(let ((.def_677 (and .def_12 .def_676)))
(let ((.def_678 (or .def_452 .def_677)))
(let ((.def_689 (and .def_678 .def_688)))
(let ((.def_658 (* b.speed_y__AT3 b.speed_y__AT3)))
(let ((.def_430 (* b.speed_y__AT2 b.speed_y__AT2)))
(let ((.def_659 (= .def_430 .def_658)))
(let ((.def_656 (+ b.speed_y__AT2 b.speed_y__AT3)))
(let ((.def_657 (= .def_656 0.0 )))
(let ((.def_660 (and .def_657 .def_659)))
(let ((.def_690 (and .def_660 .def_689)))
(let ((.def_655 (not b.bool_atom__AT2)))
(let ((.def_691 (or .def_655 .def_690)))
(let ((.def_526 (* (- 1.0) b.x__AT2)))
(let ((.def_527 (* b.x__AT2 .def_526)))
(let ((.def_652 (= b.y__AT2 .def_527)))
(let ((.def_553 (<= 0.0 b.speed_y__AT2)))
(let ((.def_554 (not .def_553)))
(let ((.def_653 (and .def_554 .def_652)))
(let ((.def_654 (= b.bool_atom__AT2 .def_653)))
(let ((.def_692 (and .def_654 .def_691)))
(let ((.def_695 (and .def_692 .def_694)))
(let ((.def_696 (and .def_630 .def_695)))
(let ((.def_697 (and .def_633 .def_696)))
(let ((.def_698 (or .def_610 .def_697)))
(let ((.def_699 (or b.EVENT.1__AT2 .def_698)))
(let ((.def_707 (and .def_699 .def_706)))
(let ((.def_726 (and .def_707 .def_725)))
(let ((.def_617 (= b.time__AT2 b.time__AT3)))
(let ((.def_631 (and .def_617 .def_630)))
(let ((.def_634 (and .def_631 .def_633)))
(let ((.def_637 (and .def_634 .def_636)))
(let ((.def_645 (and .def_637 .def_644)))
(let ((.def_648 (and .def_645 .def_647)))
(let ((.def_649 (or .def_521 .def_648)))
(let ((.def_620 (* (- 1.0) b.time__AT3)))
(let ((.def_623 (+ b.delta__AT2 .def_620)))
(let ((.def_624 (+ b.time__AT2 .def_623)))
(let ((.def_625 (= .def_624 0.0 )))
(let ((.def_626 (or .def_612 .def_625)))
(let ((.def_627 (or b.EVENT.1__AT2 .def_626)))
(let ((.def_618 (or .def_610 .def_617)))
(let ((.def_619 (or b.EVENT.1__AT2 .def_618)))
(let ((.def_628 (and .def_619 .def_627)))
(let ((.def_650 (and .def_628 .def_649)))
(let ((.def_614 (= .def_612 b.event_is_timed__AT3)))
(let ((.def_611 (= b.event_is_timed__AT2 .def_610)))
(let ((.def_615 (and .def_611 .def_614)))
(let ((.def_651 (and .def_615 .def_650)))
(let ((.def_727 (and .def_651 .def_726)))
(let ((.def_731 (and .def_727 .def_730)))
(let ((.def_735 (and .def_731 .def_734)))
(let ((.def_736 (and .def_521 .def_735)))
(let ((.def_755 (and .def_736 .def_754)))
(let ((.def_759 (and .def_755 .def_758)))
(let ((.def_590 (* .def_127 b.delta__AT2)))
(let ((.def_593 (<= .def_590 b.speed_y__AT2)))
(let ((.def_600 (not .def_593)))
(let ((.def_601 (or .def_553 .def_600)))
(let ((.def_591 (<= b.speed_y__AT2 .def_590)))
(let ((.def_567 (<= b.speed_y__AT2 0.0 )))
(let ((.def_568 (not .def_567)))
(let ((.def_599 (or .def_568 .def_591)))
(let ((.def_602 (and .def_599 .def_601)))
(let ((.def_603 (or .def_118 .def_602)))
(let ((.def_595 (not .def_591)))
(let ((.def_596 (or .def_567 .def_595)))
(let ((.def_594 (or .def_554 .def_593)))
(let ((.def_597 (and .def_594 .def_596)))
(let ((.def_598 (or .def_123 .def_597)))
(let ((.def_604 (and .def_598 .def_603)))
(let ((.def_592 (and .def_567 .def_591)))
(let ((.def_605 (and .def_592 .def_604)))
(let ((.def_549 (* .def_83 b.delta__AT2)))
(let ((.def_550 (+ b.speed_y__AT2 .def_549)))
(let ((.def_565 (<= .def_550 0.0 )))
(let ((.def_566 (not .def_565)))
(let ((.def_585 (or .def_566 .def_567)))
(let ((.def_551 (<= 0.0 .def_550)))
(let ((.def_584 (or .def_551 .def_554)))
(let ((.def_586 (and .def_584 .def_585)))
(let ((.def_587 (or .def_123 .def_586)))
(let ((.def_552 (not .def_551)))
(let ((.def_581 (or .def_552 .def_553)))
(let ((.def_580 (or .def_565 .def_568)))
(let ((.def_582 (and .def_580 .def_581)))
(let ((.def_583 (or .def_118 .def_582)))
(let ((.def_588 (and .def_583 .def_587)))
(let ((.def_579 (and .def_551 .def_553)))
(let ((.def_589 (and .def_579 .def_588)))
(let ((.def_606 (or .def_589 .def_605)))
(let ((.def_541 (+ .def_539 .def_540)))
(let ((.def_542 (* (- 1.0) .def_527)))
(let ((.def_545 (+ .def_542 .def_541)))
(let ((.def_546 (+ b.y__AT2 .def_545)))
(let ((.def_559 (<= .def_546 0.0 )))
(let ((.def_573 (not .def_559)))
(let ((.def_557 (<= b.y__AT2 .def_527)))
(let ((.def_574 (or .def_557 .def_573)))
(let ((.def_528 (<= .def_527 b.y__AT2)))
(let ((.def_571 (not .def_528)))
(let ((.def_547 (<= 0.0 .def_546)))
(let ((.def_572 (or .def_547 .def_571)))
(let ((.def_575 (and .def_572 .def_574)))
(let ((.def_569 (or .def_566 .def_568)))
(let ((.def_570 (not .def_569)))
(let ((.def_576 (or .def_570 .def_575)))
(let ((.def_561 (not .def_547)))
(let ((.def_562 (or .def_528 .def_561)))
(let ((.def_558 (not .def_557)))
(let ((.def_560 (or .def_558 .def_559)))
(let ((.def_563 (and .def_560 .def_562)))
(let ((.def_555 (or .def_552 .def_554)))
(let ((.def_556 (not .def_555)))
(let ((.def_564 (or .def_556 .def_563)))
(let ((.def_577 (and .def_564 .def_576)))
(let ((.def_548 (and .def_528 .def_547)))
(let ((.def_578 (and .def_548 .def_577)))
(let ((.def_607 (and .def_578 .def_606)))
(let ((.def_608 (and .def_61 .def_607)))
(let ((.def_215 (not b.counter.0__AT1)))
(let ((.def_205 (not b.counter.1__AT1)))
(let ((.def_532 (and .def_205 .def_215)))
(let ((.def_210 (not b.counter.2__AT1)))
(let ((.def_533 (and .def_210 .def_532)))
(let ((.def_224 (not b.counter.3__AT1)))
(let ((.def_534 (and .def_224 .def_533)))
(let ((.def_529 (and .def_61 .def_528)))
(let ((.def_524 (or .def_521 .def_523)))
(let ((.def_514 (or .def_433 .def_443)))
(let ((.def_518 (or b.counter.3__AT2 .def_514)))
(let ((.def_515 (or b.counter.2__AT2 .def_514)))
(let ((.def_513 (or .def_438 .def_443)))
(let ((.def_516 (and .def_513 .def_515)))
(let ((.def_517 (or .def_452 .def_516)))
(let ((.def_519 (and .def_517 .def_518)))
(let ((.def_525 (and .def_519 .def_524)))
(let ((.def_530 (and .def_525 .def_529)))
(let ((.def_508 (<= 0.0 b.delta__AT1)))
(let ((.def_294 (not b.EVENT.0__AT1)))
(let ((.def_292 (not b.EVENT.1__AT1)))
(let ((.def_378 (and .def_292 .def_294)))
(let ((.def_380 (not .def_378)))
(let ((.def_509 (or .def_380 .def_508)))
(let ((.def_510 (or b.EVENT.1__AT1 .def_509)))
(let ((.def_419 (= b.bool_atom__AT1 b.bool_atom__AT2)))
(let ((.def_415 (= b.counter.0__AT1 b.counter.0__AT2)))
(let ((.def_412 (= b.counter.1__AT1 b.counter.1__AT2)))
(let ((.def_409 (= b.counter.2__AT1 b.counter.2__AT2)))
(let ((.def_407 (= b.counter.3__AT1 b.counter.3__AT2)))
(let ((.def_410 (and .def_407 .def_409)))
(let ((.def_413 (and .def_410 .def_412)))
(let ((.def_416 (and .def_413 .def_415)))
(let ((.def_504 (and .def_416 .def_419)))
(let ((.def_505 (or .def_380 .def_504)))
(let ((.def_506 (or b.EVENT.1__AT1 .def_505)))
(let ((.def_493 (* .def_68 b.delta__AT1)))
(let ((.def_494 (* (- 1.0) b.speed_y__AT2)))
(let ((.def_497 (+ .def_494 .def_493)))
(let ((.def_498 (+ b.speed_y__AT1 .def_497)))
(let ((.def_499 (= .def_498 0.0 )))
(let ((.def_484 (* (- 1.0) b.y__AT2)))
(let ((.def_308 (* b.speed_y__AT1 b.delta__AT1)))
(let ((.def_488 (+ .def_308 .def_484)))
(let ((.def_306 (* b.delta__AT1 b.delta__AT1)))
(let ((.def_307 (* .def_71 .def_306)))
(let ((.def_489 (+ .def_307 .def_488)))
(let ((.def_490 (+ b.y__AT1 .def_489)))
(let ((.def_491 (= .def_490 0.0 )))
(let ((.def_398 (= b.x__AT1 b.x__AT2)))
(let ((.def_492 (and .def_398 .def_491)))
(let ((.def_500 (and .def_492 .def_499)))
(let ((.def_501 (or .def_380 .def_500)))
(let ((.def_401 (= b.y__AT1 b.y__AT2)))
(let ((.def_479 (and .def_398 .def_401)))
(let ((.def_404 (= b.speed_y__AT1 b.speed_y__AT2)))
(let ((.def_480 (and .def_404 .def_479)))
(let ((.def_476 (= b.delta__AT1 0.0 )))
(let ((.def_477 (and .def_378 .def_476)))
(let ((.def_478 (not .def_477)))
(let ((.def_481 (or .def_478 .def_480)))
(let ((.def_482 (or b.EVENT.1__AT1 .def_481)))
(let ((.def_469 (and .def_404 .def_416)))
(let ((.def_470 (or b.bool_atom__AT1 .def_469)))
(let ((.def_444 (or b.counter.0__AT1 .def_443)))
(let ((.def_442 (or .def_215 b.counter.0__AT2)))
(let ((.def_445 (and .def_442 .def_444)))
(let ((.def_446 (and .def_433 .def_445)))
(let ((.def_447 (or b.counter.1__AT1 .def_446)))
(let ((.def_441 (or .def_205 b.counter.1__AT2)))
(let ((.def_448 (and .def_441 .def_447)))
(let ((.def_460 (and .def_438 .def_448)))
(let ((.def_461 (or b.counter.2__AT1 .def_460)))
(let ((.def_455 (and .def_215 .def_433)))
(let ((.def_456 (or b.counter.1__AT1 .def_455)))
(let ((.def_457 (and .def_441 .def_456)))
(let ((.def_458 (and b.counter.2__AT2 .def_457)))
(let ((.def_459 (or .def_210 .def_458)))
(let ((.def_462 (and .def_459 .def_461)))
(let ((.def_463 (and b.counter.3__AT2 .def_462)))
(let ((.def_464 (or b.counter.3__AT1 .def_463)))
(let ((.def_449 (and b.counter.2__AT2 .def_448)))
(let ((.def_450 (or b.counter.2__AT1 .def_449)))
(let ((.def_436 (or b.counter.1__AT1 b.counter.1__AT2)))
(let ((.def_434 (and b.counter.0__AT2 .def_433)))
(let ((.def_435 (or .def_205 .def_434)))
(let ((.def_437 (and .def_435 .def_436)))
(let ((.def_439 (and .def_437 .def_438)))
(let ((.def_440 (or .def_210 .def_439)))
(let ((.def_451 (and .def_440 .def_450)))
(let ((.def_453 (and .def_451 .def_452)))
(let ((.def_454 (or .def_224 .def_453)))
(let ((.def_465 (and .def_454 .def_464)))
(let ((.def_201 (* b.speed_y__AT1 b.speed_y__AT1)))
(let ((.def_431 (= .def_201 .def_430)))
(let ((.def_428 (+ b.speed_y__AT1 b.speed_y__AT2)))
(let ((.def_429 (= .def_428 0.0 )))
(let ((.def_432 (and .def_429 .def_431)))
(let ((.def_466 (and .def_432 .def_465)))
(let ((.def_427 (not b.bool_atom__AT1)))
(let ((.def_467 (or .def_427 .def_466)))
(let ((.def_297 (* (- 1.0) b.x__AT1)))
(let ((.def_298 (* b.x__AT1 .def_297)))
(let ((.def_424 (= b.y__AT1 .def_298)))
(let ((.def_321 (<= 0.0 b.speed_y__AT1)))
(let ((.def_322 (not .def_321)))
(let ((.def_425 (and .def_322 .def_424)))
(let ((.def_426 (= b.bool_atom__AT1 .def_425)))
(let ((.def_468 (and .def_426 .def_467)))
(let ((.def_471 (and .def_468 .def_470)))
(let ((.def_472 (and .def_398 .def_471)))
(let ((.def_473 (and .def_401 .def_472)))
(let ((.def_474 (or .def_378 .def_473)))
(let ((.def_475 (or b.EVENT.1__AT1 .def_474)))
(let ((.def_483 (and .def_475 .def_482)))
(let ((.def_502 (and .def_483 .def_501)))
(let ((.def_385 (= b.time__AT1 b.time__AT2)))
(let ((.def_399 (and .def_385 .def_398)))
(let ((.def_402 (and .def_399 .def_401)))
(let ((.def_405 (and .def_402 .def_404)))
(let ((.def_417 (and .def_405 .def_416)))
(let ((.def_420 (and .def_417 .def_419)))
(let ((.def_421 (or .def_292 .def_420)))
(let ((.def_388 (* (- 1.0) b.time__AT2)))
(let ((.def_391 (+ b.delta__AT1 .def_388)))
(let ((.def_392 (+ b.time__AT1 .def_391)))
(let ((.def_393 (= .def_392 0.0 )))
(let ((.def_394 (or .def_380 .def_393)))
(let ((.def_395 (or b.EVENT.1__AT1 .def_394)))
(let ((.def_386 (or .def_378 .def_385)))
(let ((.def_387 (or b.EVENT.1__AT1 .def_386)))
(let ((.def_396 (and .def_387 .def_395)))
(let ((.def_422 (and .def_396 .def_421)))
(let ((.def_382 (= .def_380 b.event_is_timed__AT2)))
(let ((.def_379 (= b.event_is_timed__AT1 .def_378)))
(let ((.def_383 (and .def_379 .def_382)))
(let ((.def_423 (and .def_383 .def_422)))
(let ((.def_503 (and .def_423 .def_502)))
(let ((.def_507 (and .def_503 .def_506)))
(let ((.def_511 (and .def_507 .def_510)))
(let ((.def_512 (and .def_292 .def_511)))
(let ((.def_531 (and .def_512 .def_530)))
(let ((.def_535 (and .def_531 .def_534)))
(let ((.def_358 (* .def_127 b.delta__AT1)))
(let ((.def_361 (<= .def_358 b.speed_y__AT1)))
(let ((.def_368 (not .def_361)))
(let ((.def_369 (or .def_321 .def_368)))
(let ((.def_359 (<= b.speed_y__AT1 .def_358)))
(let ((.def_335 (<= b.speed_y__AT1 0.0 )))
(let ((.def_336 (not .def_335)))
(let ((.def_367 (or .def_336 .def_359)))
(let ((.def_370 (and .def_367 .def_369)))
(let ((.def_371 (or .def_118 .def_370)))
(let ((.def_363 (not .def_359)))
(let ((.def_364 (or .def_335 .def_363)))
(let ((.def_362 (or .def_322 .def_361)))
(let ((.def_365 (and .def_362 .def_364)))
(let ((.def_366 (or .def_123 .def_365)))
(let ((.def_372 (and .def_366 .def_371)))
(let ((.def_360 (and .def_335 .def_359)))
(let ((.def_373 (and .def_360 .def_372)))
(let ((.def_317 (* .def_83 b.delta__AT1)))
(let ((.def_318 (+ b.speed_y__AT1 .def_317)))
(let ((.def_333 (<= .def_318 0.0 )))
(let ((.def_334 (not .def_333)))
(let ((.def_353 (or .def_334 .def_335)))
(let ((.def_319 (<= 0.0 .def_318)))
(let ((.def_352 (or .def_319 .def_322)))
(let ((.def_354 (and .def_352 .def_353)))
(let ((.def_355 (or .def_123 .def_354)))
(let ((.def_320 (not .def_319)))
(let ((.def_349 (or .def_320 .def_321)))
(let ((.def_348 (or .def_333 .def_336)))
(let ((.def_350 (and .def_348 .def_349)))
(let ((.def_351 (or .def_118 .def_350)))
(let ((.def_356 (and .def_351 .def_355)))
(let ((.def_347 (and .def_319 .def_321)))
(let ((.def_357 (and .def_347 .def_356)))
(let ((.def_374 (or .def_357 .def_373)))
(let ((.def_309 (+ .def_307 .def_308)))
(let ((.def_310 (* (- 1.0) .def_298)))
(let ((.def_313 (+ .def_310 .def_309)))
(let ((.def_314 (+ b.y__AT1 .def_313)))
(let ((.def_327 (<= .def_314 0.0 )))
(let ((.def_341 (not .def_327)))
(let ((.def_325 (<= b.y__AT1 .def_298)))
(let ((.def_342 (or .def_325 .def_341)))
(let ((.def_299 (<= .def_298 b.y__AT1)))
(let ((.def_339 (not .def_299)))
(let ((.def_315 (<= 0.0 .def_314)))
(let ((.def_340 (or .def_315 .def_339)))
(let ((.def_343 (and .def_340 .def_342)))
(let ((.def_337 (or .def_334 .def_336)))
(let ((.def_338 (not .def_337)))
(let ((.def_344 (or .def_338 .def_343)))
(let ((.def_329 (not .def_315)))
(let ((.def_330 (or .def_299 .def_329)))
(let ((.def_326 (not .def_325)))
(let ((.def_328 (or .def_326 .def_327)))
(let ((.def_331 (and .def_328 .def_330)))
(let ((.def_323 (or .def_320 .def_322)))
(let ((.def_324 (not .def_323)))
(let ((.def_332 (or .def_324 .def_331)))
(let ((.def_345 (and .def_332 .def_344)))
(let ((.def_316 (and .def_299 .def_315)))
(let ((.def_346 (and .def_316 .def_345)))
(let ((.def_375 (and .def_346 .def_374)))
(let ((.def_376 (and .def_61 .def_375)))
(let ((.def_300 (and .def_61 .def_299)))
(let ((.def_295 (or .def_292 .def_294)))
(let ((.def_285 (or .def_205 .def_215)))
(let ((.def_289 (or b.counter.3__AT1 .def_285)))
(let ((.def_286 (or b.counter.2__AT1 .def_285)))
(let ((.def_284 (or .def_210 .def_215)))
(let ((.def_287 (and .def_284 .def_286)))
(let ((.def_288 (or .def_224 .def_287)))
(let ((.def_290 (and .def_288 .def_289)))
(let ((.def_296 (and .def_290 .def_295)))
(let ((.def_301 (and .def_296 .def_300)))
(let ((.def_279 (<= 0.0 b.delta__AT0)))
(let ((.def_49 (not b.EVENT.0__AT0)))
(let ((.def_47 (not b.EVENT.1__AT0)))
(let ((.def_148 (and .def_47 .def_49)))
(let ((.def_150 (not .def_148)))
(let ((.def_280 (or .def_150 .def_279)))
(let ((.def_281 (or b.EVENT.1__AT0 .def_280)))
(let ((.def_190 (= b.bool_atom__AT0 b.bool_atom__AT1)))
(let ((.def_185 (= b.counter.0__AT0 b.counter.0__AT1)))
(let ((.def_182 (= b.counter.1__AT0 b.counter.1__AT1)))
(let ((.def_179 (= b.counter.2__AT0 b.counter.2__AT1)))
(let ((.def_177 (= b.counter.3__AT0 b.counter.3__AT1)))
(let ((.def_180 (and .def_177 .def_179)))
(let ((.def_183 (and .def_180 .def_182)))
(let ((.def_186 (and .def_183 .def_185)))
(let ((.def_275 (and .def_186 .def_190)))
(let ((.def_276 (or .def_150 .def_275)))
(let ((.def_277 (or b.EVENT.1__AT0 .def_276)))
(let ((.def_264 (* b.delta__AT0 .def_68)))
(let ((.def_265 (* (- 1.0) b.speed_y__AT1)))
(let ((.def_268 (+ .def_265 .def_264)))
(let ((.def_269 (+ b.speed_y__AT0 .def_268)))
(let ((.def_270 (= .def_269 0.0 )))
(let ((.def_256 (* (- 1.0) b.y__AT1)))
(let ((.def_74 (* b.delta__AT0 b.speed_y__AT0)))
(let ((.def_259 (+ .def_74 .def_256)))
(let ((.def_67 (* b.delta__AT0 b.delta__AT0)))
(let ((.def_72 (* .def_67 .def_71)))
(let ((.def_260 (+ .def_72 .def_259)))
(let ((.def_261 (+ b.y__AT0 .def_260)))
(let ((.def_262 (= .def_261 0.0 )))
(let ((.def_168 (= b.x__AT0 b.x__AT1)))
(let ((.def_263 (and .def_168 .def_262)))
(let ((.def_271 (and .def_263 .def_270)))
(let ((.def_272 (or .def_150 .def_271)))
(let ((.def_171 (= b.y__AT0 b.y__AT1)))
(let ((.def_251 (and .def_168 .def_171)))
(let ((.def_174 (= b.speed_y__AT0 b.speed_y__AT1)))
(let ((.def_252 (and .def_174 .def_251)))
(let ((.def_248 (= b.delta__AT0 0.0 )))
(let ((.def_249 (and .def_148 .def_248)))
(let ((.def_250 (not .def_249)))
(let ((.def_253 (or .def_250 .def_252)))
(let ((.def_254 (or b.EVENT.1__AT0 .def_253)))
(let ((.def_241 (and .def_174 .def_186)))
(let ((.def_242 (or b.bool_atom__AT0 .def_241)))
(let ((.def_216 (or b.counter.0__AT0 .def_215)))
(let ((.def_30 (not b.counter.0__AT0)))
(let ((.def_214 (or .def_30 b.counter.0__AT1)))
(let ((.def_217 (and .def_214 .def_216)))
(let ((.def_218 (and .def_205 .def_217)))
(let ((.def_219 (or b.counter.1__AT0 .def_218)))
(let ((.def_28 (not b.counter.1__AT0)))
(let ((.def_213 (or .def_28 b.counter.1__AT1)))
(let ((.def_220 (and .def_213 .def_219)))
(let ((.def_232 (and .def_210 .def_220)))
(let ((.def_233 (or b.counter.2__AT0 .def_232)))
(let ((.def_227 (and .def_30 .def_205)))
(let ((.def_228 (or b.counter.1__AT0 .def_227)))
(let ((.def_229 (and .def_213 .def_228)))
(let ((.def_230 (and b.counter.2__AT1 .def_229)))
(let ((.def_33 (not b.counter.2__AT0)))
(let ((.def_231 (or .def_33 .def_230)))
(let ((.def_234 (and .def_231 .def_233)))
(let ((.def_235 (and b.counter.3__AT1 .def_234)))
(let ((.def_236 (or b.counter.3__AT0 .def_235)))
(let ((.def_221 (and b.counter.2__AT1 .def_220)))
(let ((.def_222 (or b.counter.2__AT0 .def_221)))
(let ((.def_208 (or b.counter.1__AT0 b.counter.1__AT1)))
(let ((.def_206 (and b.counter.0__AT1 .def_205)))
(let ((.def_207 (or .def_28 .def_206)))
(let ((.def_209 (and .def_207 .def_208)))
(let ((.def_211 (and .def_209 .def_210)))
(let ((.def_212 (or .def_33 .def_211)))
(let ((.def_223 (and .def_212 .def_222)))
(let ((.def_225 (and .def_223 .def_224)))
(let ((.def_36 (not b.counter.3__AT0)))
(let ((.def_226 (or .def_36 .def_225)))
(let ((.def_237 (and .def_226 .def_236)))
(let ((.def_202 (* b.speed_y__AT0 b.speed_y__AT0)))
(let ((.def_203 (= .def_201 .def_202)))
(let ((.def_199 (+ b.speed_y__AT0 b.speed_y__AT1)))
(let ((.def_200 (= .def_199 0.0 )))
(let ((.def_204 (and .def_200 .def_203)))
(let ((.def_238 (and .def_204 .def_237)))
(let ((.def_198 (not b.bool_atom__AT0)))
(let ((.def_239 (or .def_198 .def_238)))
(let ((.def_54 (* (- 1.0) b.x__AT0)))
(let ((.def_55 (* b.x__AT0 .def_54)))
(let ((.def_195 (= b.y__AT0 .def_55)))
(let ((.def_88 (<= 0.0 b.speed_y__AT0)))
(let ((.def_89 (not .def_88)))
(let ((.def_196 (and .def_89 .def_195)))
(let ((.def_197 (= b.bool_atom__AT0 .def_196)))
(let ((.def_240 (and .def_197 .def_239)))
(let ((.def_243 (and .def_240 .def_242)))
(let ((.def_244 (and .def_168 .def_243)))
(let ((.def_245 (and .def_171 .def_244)))
(let ((.def_246 (or .def_148 .def_245)))
(let ((.def_247 (or b.EVENT.1__AT0 .def_246)))
(let ((.def_255 (and .def_247 .def_254)))
(let ((.def_273 (and .def_255 .def_272)))
(let ((.def_155 (= b.time__AT0 b.time__AT1)))
(let ((.def_169 (and .def_155 .def_168)))
(let ((.def_172 (and .def_169 .def_171)))
(let ((.def_175 (and .def_172 .def_174)))
(let ((.def_187 (and .def_175 .def_186)))
(let ((.def_191 (and .def_187 .def_190)))
(let ((.def_192 (or .def_47 .def_191)))
(let ((.def_158 (* (- 1.0) b.time__AT1)))
(let ((.def_161 (+ b.delta__AT0 .def_158)))
(let ((.def_162 (+ b.time__AT0 .def_161)))
(let ((.def_163 (= .def_162 0.0 )))
(let ((.def_164 (or .def_150 .def_163)))
(let ((.def_165 (or b.EVENT.1__AT0 .def_164)))
(let ((.def_156 (or .def_148 .def_155)))
(let ((.def_157 (or b.EVENT.1__AT0 .def_156)))
(let ((.def_166 (and .def_157 .def_165)))
(let ((.def_193 (and .def_166 .def_192)))
(let ((.def_152 (= .def_150 b.event_is_timed__AT1)))
(let ((.def_149 (= b.event_is_timed__AT0 .def_148)))
(let ((.def_153 (and .def_149 .def_152)))
(let ((.def_194 (and .def_153 .def_193)))
(let ((.def_274 (and .def_194 .def_273)))
(let ((.def_278 (and .def_274 .def_277)))
(let ((.def_282 (and .def_278 .def_281)))
(let ((.def_283 (and .def_47 .def_282)))
(let ((.def_302 (and .def_283 .def_301)))
(let ((.def_31 (and .def_28 .def_30)))
(let ((.def_34 (and .def_31 .def_33)))
(let ((.def_37 (and .def_34 .def_36)))
(let ((.def_303 (and .def_37 .def_302)))
(let ((.def_128 (* b.delta__AT0 .def_127)))
(let ((.def_131 (<= .def_128 b.speed_y__AT0)))
(let ((.def_138 (not .def_131)))
(let ((.def_139 (or .def_88 .def_138)))
(let ((.def_129 (<= b.speed_y__AT0 .def_128)))
(let ((.def_102 (<= b.speed_y__AT0 0.0 )))
(let ((.def_103 (not .def_102)))
(let ((.def_137 (or .def_103 .def_129)))
(let ((.def_140 (and .def_137 .def_139)))
(let ((.def_141 (or .def_118 .def_140)))
(let ((.def_133 (not .def_129)))
(let ((.def_134 (or .def_102 .def_133)))
(let ((.def_132 (or .def_89 .def_131)))
(let ((.def_135 (and .def_132 .def_134)))
(let ((.def_136 (or .def_123 .def_135)))
(let ((.def_142 (and .def_136 .def_141)))
(let ((.def_130 (and .def_102 .def_129)))
(let ((.def_143 (and .def_130 .def_142)))
(let ((.def_84 (* b.delta__AT0 .def_83)))
(let ((.def_85 (+ b.speed_y__AT0 .def_84)))
(let ((.def_100 (<= .def_85 0.0 )))
(let ((.def_101 (not .def_100)))
(let ((.def_121 (or .def_101 .def_102)))
(let ((.def_86 (<= 0.0 .def_85)))
(let ((.def_120 (or .def_86 .def_89)))
(let ((.def_122 (and .def_120 .def_121)))
(let ((.def_124 (or .def_122 .def_123)))
(let ((.def_87 (not .def_86)))
(let ((.def_116 (or .def_87 .def_88)))
(let ((.def_115 (or .def_100 .def_103)))
(let ((.def_117 (and .def_115 .def_116)))
(let ((.def_119 (or .def_117 .def_118)))
(let ((.def_125 (and .def_119 .def_124)))
(let ((.def_114 (and .def_86 .def_88)))
(let ((.def_126 (and .def_114 .def_125)))
(let ((.def_144 (or .def_126 .def_143)))
(let ((.def_75 (+ .def_72 .def_74)))
(let ((.def_76 (* (- 1.0) .def_55)))
(let ((.def_79 (+ .def_76 .def_75)))
(let ((.def_80 (+ b.y__AT0 .def_79)))
(let ((.def_94 (<= .def_80 0.0 )))
(let ((.def_108 (not .def_94)))
(let ((.def_92 (<= b.y__AT0 .def_55)))
(let ((.def_109 (or .def_92 .def_108)))
(let ((.def_56 (<= .def_55 b.y__AT0)))
(let ((.def_106 (not .def_56)))
(let ((.def_81 (<= 0.0 .def_80)))
(let ((.def_107 (or .def_81 .def_106)))
(let ((.def_110 (and .def_107 .def_109)))
(let ((.def_104 (or .def_101 .def_103)))
(let ((.def_105 (not .def_104)))
(let ((.def_111 (or .def_105 .def_110)))
(let ((.def_96 (not .def_81)))
(let ((.def_97 (or .def_56 .def_96)))
(let ((.def_93 (not .def_92)))
(let ((.def_95 (or .def_93 .def_94)))
(let ((.def_98 (and .def_95 .def_97)))
(let ((.def_90 (or .def_87 .def_89)))
(let ((.def_91 (not .def_90)))
(let ((.def_99 (or .def_91 .def_98)))
(let ((.def_112 (and .def_99 .def_111)))
(let ((.def_82 (and .def_56 .def_81)))
(let ((.def_113 (and .def_82 .def_112)))
(let ((.def_145 (and .def_113 .def_144)))
(let ((.def_146 (and .def_61 .def_145)))
(let ((.def_62 (and .def_56 .def_61)))
(let ((.def_50 (or .def_47 .def_49)))
(let ((.def_40 (or .def_28 .def_30)))
(let ((.def_44 (or b.counter.3__AT0 .def_40)))
(let ((.def_41 (or b.counter.2__AT0 .def_40)))
(let ((.def_39 (or .def_30 .def_33)))
(let ((.def_42 (and .def_39 .def_41)))
(let ((.def_43 (or .def_36 .def_42)))
(let ((.def_45 (and .def_43 .def_44)))
(let ((.def_51 (and .def_45 .def_50)))
(let ((.def_63 (and .def_51 .def_62)))
(let ((.def_25 (= b.y__AT0 10.0 )))
(let ((.def_21 (= b.x__AT0 0.0 )))
(let ((.def_17 (= b.time__AT0 0.0 )))
(let ((.def_19 (and .def_17 b.event_is_timed__AT0)))
(let ((.def_22 (and .def_19 .def_21)))
(let ((.def_26 (and .def_22 .def_25)))
(let ((.def_38 (and .def_26 .def_37)))
(let ((.def_64 (and .def_38 .def_63)))
(let ((.def_7 (and .def_4 .def_6)))
(let ((.def_10 (and .def_7 .def_9)))
(let ((.def_13 (and .def_10 .def_12)))
(let ((.def_14 (not .def_13)))
(let ((.def_65 (and .def_14 .def_64)))
(let ((.def_147 (and .def_65 .def_146)))
(let ((.def_304 (and .def_147 .def_303)))
(let ((.def_377 (and .def_304 .def_376)))
(let ((.def_536 (and .def_377 .def_535)))
(let ((.def_609 (and .def_536 .def_608)))
(let ((.def_760 (and .def_609 .def_759)))
(let ((.def_833 (and .def_760 .def_832)))
.def_833))))))))))))))))))))))))))))))))))))))))))))))))))))))))))))))))))))))))))))))))))))))))))))))))))))))))))))))))))))))))))))))))))))))))))))))))))))))))))))))))))))))))))))))))))))))))))))))))))))))))))))))))))))))))))))))))))))))))))))))))))))))))))))))))))))))))))))))))))))))))))))))))))))))))))))))))))))))))))))))))))))))))))))))))))))))))))))))))))))))))))))))))))))))))))))))))))))))))))))))))))))))))))))))))))))))))))))))))))))))))))))))))))))))))))))))))))))))))))))))))))))))))))))))))))))))))))))))))))))))))))))))))))))))))))))))))))))))))))))))))))))))))))))))))))))))))))))))))))))))))))))))))))))))))))))))))))))))))))))))))))))))))))))))))))))))))))))))))))))))))))))))))))))))))))))))))))))))))))))))))))))))))))))))))))))))))
(check-sat)
(exit)
